cases/pglib-opf/pglib_opf_case30_fsr.m
ipopt
ACR
[info | PowerModels]: extending matpower format with data: areas 3x3

******************************************************************************
This program contains Ipopt, a library for large-scale nonlinear optimization.
 Ipopt is released as open source code under the Eclipse Public License (EPL).
         For more information visit http://projects.coin-or.org/Ipopt
******************************************************************************

This is Ipopt version 3.13.2, running with linear solver mumps.
NOTE: Other linear solvers might be more efficient (see Ipopt documentation).

Number of nonzeros in equality constraint Jacobian...:     1845
Number of nonzeros in inequality constraint Jacobian.:      940
Number of nonzeros in Lagrangian Hessian.............:     1522

Total number of variables............................:      236
                     variables with only lower bounds:        0
                variables with lower and upper bounds:      236
                     variables with only upper bounds:        0
Total number of equality constraints.................:      225
Total number of inequality constraints...............:      224
        inequality constraints with only lower bounds:       71
   inequality constraints with lower and upper bounds:        0
        inequality constraints with only upper bounds:      153

iter    objective    inf_pr   inf_du lg(mu)  ||d||  lg(rg) alpha_du alpha_pr  ls
   0  7.4358840e+00 3.00e-01 1.59e+01  -1.0 0.00e+00    -  0.00e+00 0.00e+00   0
   1  5.6880803e+02 1.82e-02 4.74e+01  -1.0 4.81e-01    -  2.04e-02 1.00e+00h  1
   2  5.7429519e+02 1.24e-02 5.80e+00  -1.0 1.15e-01    -  1.00e+00 8.79e-01h  1
   3  5.7447754e+02 9.81e-03 7.53e+01  -1.0 1.12e-01    -  1.00e+00 2.72e-01h  1
   4  5.7588985e+02 3.08e-03 5.01e+00  -1.0 1.26e-01    -  1.00e+00 1.00e+00h  1
   5  5.7650336e+02 1.85e-04 4.65e-01  -1.0 2.97e-02    -  1.00e+00 1.00e+00h  1
   6  5.7621273e+02 9.63e-05 5.21e-01  -1.7 1.80e-02    -  1.00e+00 1.00e+00h  1
   7  5.7607838e+02 4.71e-05 6.06e-02  -1.7 1.05e-02    -  1.00e+00 1.00e+00h  1
   8  5.7591842e+02 3.68e-05 3.40e+00  -2.5 1.04e-02    -  9.13e-01 1.00e+00h  1
   9  5.7579176e+02 2.62e-05 8.95e-01  -2.5 1.66e-02    -  1.00e+00 8.59e-01h  1
iter    objective    inf_pr   inf_du lg(mu)  ||d||  lg(rg) alpha_du alpha_pr  ls
  10  5.7581259e+02 6.61e-06 2.33e-03  -2.5 5.81e-03    -  1.00e+00 1.00e+00f  1
  11  5.7577175e+02 2.59e-05 4.73e-01  -3.8 1.08e-02    -  9.15e-01 7.80e-01h  1
  12  5.7576866e+02 1.56e-05 1.16e-03  -3.8 7.03e-03    -  1.00e+00 1.00e+00h  1
  13  5.7576877e+02 1.53e-06 1.64e-02  -5.7 1.69e-03    -  9.96e-01 9.55e-01h  1
  14  5.7576883e+02 7.68e-07 1.76e-02  -5.7 1.30e-04    -  1.00e+00 5.00e-01h  2
  15  5.7576889e+02 1.30e-09 8.19e-08  -5.7 6.52e-05    -  1.00e+00 1.00e+00h  1
  16  5.7576888e+02 9.08e-11 5.26e-09  -8.6 1.67e-05    -  1.00e+00 1.00e+00h  1

Number of Iterations....: 16

                                   (scaled)                 (unscaled)
Objective...............:   1.7715965542391731e+02    5.7576888012773122e+02
Dual infeasibility......:   5.2560941464970757e-09    1.7082305976115496e-08
Constraint violation....:   9.0829260779301535e-11    9.0829260779301535e-11
Complementarity.........:   3.3200296332688387e-09    1.0790096308123725e-08
Overall NLP error.......:   5.2560941464970757e-09    1.7082305976115496e-08


Number of objective function evaluations             = 18
Number of objective gradient evaluations             = 17
Number of equality constraint evaluations            = 18
Number of inequality constraint evaluations          = 18
Number of equality constraint Jacobian evaluations   = 17
Number of inequality constraint Jacobian evaluations = 17
Number of Lagrangian Hessian evaluations             = 16
Total CPU secs in IPOPT (w/o function evaluations)   =      0.315
Total CPU secs in NLP function evaluations           =      0.212

EXIT: Optimal Solution Found.
Time to Solution........:1.226789951324463
